n_res = 4;
rc = [ 0, 0, 0, 0 ];
n_tasks = 30;
d = [ 1, 5, 7, 2, 8, 10, 3, 7, 2, 10, 7, 9, 5, 5, 6, 9, 6, 6, 7, 4, 8, 5, 10, 5, 3, 7, 5, 2, 4, 5 ];
rr = [| 0, 0, 0, 0, 0, 0, 0, 0, 0, 0, 0, 0, 0, 0, 0, 0, 0, 0, 0, 0, 0, 0, 0, 0, 0, 0, 0, 0, 0, 0
      | 0, 0, 0, 0, 0, 0, 0, 0, 0, 0, 0, 0, 0, 0, 0, 0, 0, 0, 0, 0, 0, 0, 0, 0, 0, 0, 0, 0, 0, 0
      | 0, 0, 0, 0, 0, 0, 0, 0, 0, 0, 0, 0, 0, 0, 0, 0, 0, 0, 0, 0, 0, 0, 0, 0, 0, 0, 0, 0, 0, 0
      | 0, 0, 0, 0, 0, 0, 0, 0, 0, 0, 0, 0, 0, 0, 0, 0, 0, 0, 0, 0, 0, 0, 0, 0, 0, 0, 0, 0, 0, 0 |];
suc = [ { 4, 9, 12 },
       { 5, 8, 14 },
       { 27 },
       { 11, 28 },
       { 6, 7, 12 },
       { 15, 18, 21 },
       { 30 },
       { 15 },
       { 10, 13 },
       { 14 },
       { 20, 22 },
       { 24 },
       { 23 },
       { 16, 25, 26 },
       { 23 },
       { 17, 19 },
       { 20 },
       { 22 },
       { 20 },
       { 29 },
       { 25 },
       { 24 },
       { 27, 28 },
       { 29 },
       { 28 },
       { 30 },
       { 29 },
       {  },
       {  },
       {  } ];
